%chk=AT.chk
#p b3lyp/6-31g geom=connectivity extralinks=l316 int=noraff iop(3/33=6)
pop=full scf=(conventional,tight) symm=noint

AT

0 1
 H                  0.75897728    1.90668090   -2.34307143
 N                  1.25903266    1.48170511   -1.58855413
 C                  2.14114789    2.06609491   -0.71992039
 H                  2.40459334    3.12310548   -0.75776640
 N                  2.63337825    1.24105177    0.15598849
 C                  2.02548568    0.03556807   -0.14672087
 C                  2.12896450   -1.25142865    0.42145241
 N                  2.91782169   -1.52774772    1.47302142
 H                  2.95611183   -2.48377930    1.84999706
 H                  3.48324985   -0.78051178    1.90114128
 N                  1.39536765   -2.23118501   -0.12794220
 C                  0.61666892   -1.94535497   -1.16800698
 H                  0.04372028   -2.78297642   -1.56456889
 N                  0.43888292   -0.79875249   -1.78971442
 C                  1.18712122    0.16153281   -1.21759304
 H                 -3.45374536   -0.21748675   -1.58816402
 N                 -2.83866886   -0.03779602   -0.82020811
 C                 -2.36062556    1.22780692   -0.58571055
 H                 -2.65190962    2.04346251   -1.24900365
 C                 -1.53656539    1.47744446    0.45012834
 C                 -0.98082047    2.83827257    0.74677594
 H                 -1.79192999    3.50740968    1.03549388
 H                 -0.26195292    2.76813093    1.56347832
 H                 -0.48465899    3.23138493   -0.14073329
 C                 -1.12373151    0.41809982    1.33872636
 O                 -0.36861168    0.55943036    2.30827933
 N                 -1.64945961   -0.81510242    1.02766931
 H                 -1.37948756   -1.59963732    1.63780884
 C                 -2.50098374   -1.10880305   -0.01885488
 O                 -2.91856585   -2.23647944   -0.21554085

 1 2 1.0
 2 3 1.5 15 1.0
 3 4 1.0 5 2.0
 4
 5 6 1.0
 6 7 1.5 15 2.0
 7 8 1.5 11 1.5
 8 9 1.0 10 1.0
 9
 10
 11 12 1.5
 12 13 1.0 14 1.5
 13
 14 15 1.5
 15
 16 17 1.0
 17 18 1.0 29 1.5
 18 19 1.0 20 2.0
 19
 20 21 1.0 25 1.0
 21 22 1.0 23 1.0 24 1.0
 22
 23
 24
 25 26 2.0 27 1.5
 26
 27 28 1.0 29 1.0
 28
 29 30 2.0
 30

